c 1 A1
c 2 C2
c 3 C3
c 4 A4
c 5 A5
c 6 A6
c 7 C7
c 8 C8
c 9 C10
c 10 C12
c 11 C13
c 12 C14
c 13 C15
c 14 A11
c 15 C16
c 16 C17
c 17 C18
c 18 A9
c 19 C19
c 20 C20
c 21 C21
p cnf 21 37
1 0
1 -2 0
1 -3 0
1 -4 0
2 -1 0
3 -1 0
4 -1 0
4 -5 0
5 -4 0
5 -6 0
6 -7 0
6 -8 0
6 -18 0
6 -9 0
6 -14 0
6 -10 0
6 -11 0
6 -12 0
6 -13 0
7 -6 0
14 -6 0
10 -6 0
11 -6 0
12 -6 0
14 -15 0
14 -16 0
14 -17 0
15 16 17 -14 0
18 -19 0
18 -20 0
18 -21 0
19 20 21 -18 0
-17 -2 3 0
-18 -17 -2 0
-17 -21 0
1 4 5 0
-1 -4 5 0